(set-info :status unknown)
(declare-fun C1 () (_ BitVec 2))
(declare-fun %X () (_ BitVec 2))
(declare-fun C2 () (_ BitVec 2))
(assert
 (let ((?x6159 (ite (bvugt %X C1) (_ bv1 1) (_ bv0 1))))
 (and (bvult C1 C2) (and (distinct (bvor ?x6159 (ite (bvugt %X C2) (_ bv1 1) (_ bv0 1))) ?x6159) true))))
(check-sat)
